NAME : local_8
TYPE : ATSP
DIMENSION : 11
EDGE_WEIGHT_TYPE : EXPLICIT
EDGE_WEIGHT_FORMAT : FULL_MATRIX
EDGE_WEIGHT_SECTION
0 318 387 367 582 10000000 741 537 587 10000000 220 
0 0 252 641 375 10000000 10000000 232 889 10000000 384 
0 252 0 569 200 10000000 994 339 837 10000000 293 
0 641 569 0 751 10000000 542 838 269 10000000 279 
0 375 200 751 0 10000000 10000000 349 10000000 10000000 484 
0 10000000 10000000 10000000 10000000 0 1037 10000000 10000000 210 10000000 
0 10000000 993 542 10000000 1040 0 10000000 473 826 737 
0 232 339 838 349 10000000 10000000 0 10000000 10000000 566 
0 889 837 269 10000000 10000000 473 10000000 0 10000000 545 
0 10000000 10000000 10000000 10000000 210 826 10000000 10000000 0 10000000 
0 10000000 10000000 10000000 10000000 10000000 10000000 10000000 10000000 10000000 0 
EOF